c FILE /home/rafael/Documents/HappySet/MIHS/inputs/happygen/output/graph_d_regular_k3_p0.5_v100_20241127_084021.txt
c SOURCE This is a d-regular graph formed for the happy graph colouring problem.
c DESCRIPTION It was generated using the problem generator of Rhyd Lewis
c
c GRAPH STATS
c Seed                             = -808519027
c Number of Nodes                  = 100
c Number of colours k              = 3
c Number of pre-assignments        = 50
c Degree of all vertices           = 6
c Density                          = 0.0606061
c 
c The degrees of nodes 1 to 100, respectively, are as follows 
c [6, 6, 6, 6, 6, 6, 6, 6, 6, 6, 6, 6, 6, 6, 6, 6, 6, 6, 6, 6, 6, 6, 6, 6, 6, 6, 
c  6, 6, 6, 6, 6, 6, 6, 6, 6, 6, 6, 6, 6, 6, 6, 6, 6, 6, 6, 6, 6, 6, 6, 6, 6, 
c  6, 6, 6, 6, 6, 6, 6, 6, 6, 6, 6, 6, 6, 6, 6, 6, 6, 6, 6, 6, 6, 6, 6, 6, 6, 
c  6, 6, 6, 6, 6, 6, 6, 6, 6, 6, 6, 6, 6, 6, 6, 6, 6, 6, 6, 6, 6, 6, 6, 6] 
c  
p edge 100 300 3
e 1 7
e 1 20
e 1 25
e 1 29
e 1 59
e 1 86
e 2 18
e 2 27
e 2 30
e 2 45
e 2 51
e 2 75
e 3 37
e 3 42
e 3 44
e 3 52
e 3 54
e 3 76
e 4 9
e 4 41
e 4 48
e 4 50
e 4 70
e 4 97
e 5 15
e 5 43
e 5 73
e 5 77
e 5 86
e 5 92
e 6 15
e 6 40
e 6 67
e 6 71
e 6 89
e 6 94
e 7 42
e 7 43
e 7 61
e 7 64
e 7 81
e 8 20
e 8 32
e 8 54
e 8 67
e 8 90
e 8 98
e 9 25
e 9 62
e 9 66
e 9 73
e 9 83
e 10 13
e 10 16
e 10 21
e 10 24
e 10 67
e 10 94
e 11 42
e 11 47
e 11 62
e 11 74
e 11 91
e 11 96
e 12 22
e 12 55
e 12 57
e 12 73
e 12 74
e 12 81
e 13 48
e 13 69
e 13 88
e 13 90
e 13 93
e 14 33
e 14 50
e 14 77
e 14 85
e 14 86
e 14 92
e 15 35
e 15 51
e 15 73
e 15 76
e 16 34
e 16 41
e 16 62
e 16 79
e 16 85
e 17 34
e 17 52
e 17 72
e 17 85
e 17 91
e 17 92
e 18 19
e 18 38
e 18 65
e 18 80
e 18 95
e 19 56
e 19 71
e 19 79
e 19 84
e 19 90
e 20 34
e 20 53
e 20 86
e 20 88
e 21 22
e 21 51
e 21 53
e 21 92
e 21 93
e 22 39
e 22 75
e 22 84
e 22 97
e 23 40
e 23 51
e 23 61
e 23 66
e 23 67
e 23 91
e 24 36
e 24 46
e 24 50
e 24 70
e 24 81
e 25 35
e 25 89
e 25 93
e 25 100
e 26 30
e 26 59
e 26 70
e 26 72
e 26 77
e 26 83
e 27 48
e 27 51
e 27 59
e 27 71
e 27 73
e 28 32
e 28 41
e 28 52
e 28 55
e 28 79
e 28 96
e 29 42
e 29 47
e 29 52
e 29 93
e 29 100
e 30 40
e 30 56
e 30 91
e 30 97
e 31 32
e 31 33
e 31 59
e 31 61
e 31 63
e 31 81
e 32 35
e 32 53
e 32 79
e 33 74
e 33 91
e 33 96
e 33 98
e 34 56
e 34 59
e 34 64
e 35 44
e 35 61
e 35 69
e 36 38
e 36 59
e 36 73
e 36 84
e 36 93
e 37 54
e 37 76
e 37 77
e 37 83
e 37 99
e 38 39
e 38 94
e 38 98
e 38 99
e 39 62
e 39 75
e 39 88
e 39 95
e 40 49
e 40 56
e 40 96
e 41 44
e 41 47
e 41 57
e 42 74
e 42 76
e 43 47
e 43 58
e 43 72
e 43 76
e 44 50
e 44 90
e 44 99
e 45 46
e 45 70
e 45 78
e 45 83
e 45 95
e 46 63
e 46 65
e 46 66
e 46 78
e 47 71
e 47 98
e 48 50
e 48 57
e 48 74
e 49 54
e 49 62
e 49 68
e 49 77
e 49 100
e 50 82
e 51 60
e 52 53
e 52 89
e 53 60
e 53 98
e 54 69
e 54 87
e 55 57
e 55 63
e 55 85
e 55 100
e 56 75
e 56 78
e 57 91
e 57 94
e 58 60
e 58 68
e 58 81
e 58 82
e 58 87
e 60 66
e 60 68
e 60 70
e 61 63
e 61 78
e 62 92
e 63 66
e 63 84
e 64 65
e 64 76
e 64 93
e 64 95
e 65 77
e 65 87
e 65 89
e 66 85
e 67 89
e 67 100
e 68 69
e 68 85
e 68 96
e 69 72
e 69 80
e 70 72
e 71 95
e 71 96
e 72 84
e 74 75
e 75 99
e 78 82
e 78 90
e 79 84
e 79 94
e 80 82
e 80 87
e 80 88
e 80 92
e 81 82
e 82 83
e 83 95
e 86 87
e 86 100
e 87 97
e 88 97
e 88 98
e 89 99
e 90 99
e 94 97
n 1 2
n 2 1
n 9 2
n 10 2
n 11 2
n 16 2
n 17 3
n 20 2
n 21 2
n 23 2
n 25 2
n 29 2
n 32 2
n 33 3
n 35 2
n 36 2
n 40 2
n 43 3
n 46 2
n 48 1
n 49 2
n 50 1
n 53 2
n 54 2
n 55 1
n 57 1
n 59 2
n 60 2
n 61 2
n 62 2
n 65 2
n 66 2
n 67 2
n 68 2
n 71 3
n 72 3
n 73 2
n 75 1
n 76 3
n 77 2
n 80 2
n 81 2
n 86 2
n 87 2
n 88 2
n 89 2
n 90 3
n 93 2
n 95 3
n 97 2
